Geographic Exponential Decay
40 41 77 292 42 289 74 159 121 62 316 119 163 161 151 196 215 304 47 255 298 296 286 305 212 218 157 199 207 224 191 72 228 313 179 34 173 8 94 222 37
p edge 320 324
e 0 156 2.0
e 1 252 1.0
e 1 0 2.0
e 2 115 2.0
e 2 1 2.0
e 3 197 1.0
e 3 2 1.0
e 4 179 2.0
e 4 3 3.0
e 5 170 3.0
e 5 4 3.0
e 6 30 2.0
e 6 5 3.0
e 7 90 1.0
e 7 6 1.0
e 8 119 43.0
e 8 58 98.0
e 8 318 26.0
e 8 267 84.0
e 8 54 49.0
e 8 7 98.0
e 9 290 5.0
e 9 8 86.0
e 10 62 66.0
e 11 72 39.0
e 12 62 48.0
e 12 215 45.0
e 12 299 34.0
e 13 87 3.0
e 13 9 5.0
e 14 220 4.0
e 14 13 3.0
e 15 222 97.0
e 16 62 41.0
e 17 191 95.0
e 18 225 4.0
e 18 14 1.0
e 19 118 1.0
e 19 18 1.0
e 20 21 2.0
e 20 19 1.0
e 22 313 38.0
e 23 102 5.0
e 23 20 2.0
e 24 297 1.0
e 24 23 1.0
e 25 265 1.0
e 25 24 1.0
e 26 222 85.0
e 27 79 2.0
e 27 25 2.0
e 28 208 4.0
e 28 27 1.0
e 29 219 13.0
e 31 59 17.0
e 31 281 14.0
e 31 28 13.0
e 32 315 1.0
e 32 31 16.0
e 33 98 1.0
e 33 32 2.0
e 34 69 69.0
e 34 121 70.0
e 34 296 32.0
e 34 169 47.0
e 34 35 100.0
e 36 283 1.0
e 36 33 2.0
e 37 101 15.0
e 37 50 63.0
e 37 276 99.0
e 37 198 88.0
e 37 280 30.0
e 37 36 23.0
e 38 127 1.0
e 38 37 27.0
e 39 177 10.0
e 39 38 1.0
e 40 45 30.0
e 40 235 39.0
e 40 258 36.0
e 40 39 6.0
e 41 130 45.0
e 41 207 17.0
e 41 53 41.0
e 41 219 8.0
e 41 270 70.0
e 42 253 55.0
e 42 206 98.0
e 42 45 22.0
e 42 233 67.0
e 42 274 25.0
e 43 211 3.0
e 43 40 33.0
e 44 46 3.0
e 44 43 11.0
e 47 111 99.0
e 47 222 92.0
e 47 48 41.0
e 47 202 74.0
e 47 238 70.0
e 49 97 3.0
e 49 44 7.0
e 51 253 18.0
e 52 188 1.0
e 52 49 1.0
e 55 70 5.0
e 55 52 2.0
e 56 138 11.0
e 56 55 5.0
e 57 277 5.0
e 59 60 24.0
e 61 62 80.0
e 62 141 41.0
e 63 139 1.0
e 63 56 4.0
e 64 186 2.0
e 64 63 1.0
e 65 135 11.0
e 65 66 22.0
e 65 64 19.0
e 67 68 1.0
e 67 65 18.0
e 71 95 2.0
e 71 67 1.0
e 72 161 65.0
e 72 224 93.0
e 72 269 65.0
e 72 286 38.0
e 73 74 47.0
e 73 71 5.0
e 74 266 8.0
e 74 75 90.0
e 74 76 34.0
e 74 173 32.0
e 77 78 4.0
e 77 166 70.0
e 77 162 93.0
e 77 80 80.0
e 77 289 35.0
e 81 247 17.0
e 81 140 14.0
e 81 73 6.0
e 82 83 3.0
e 82 81 20.0
e 84 166 10.0
e 85 86 1.0
e 85 82 7.0
e 88 137 1.0
e 88 85 4.0
e 89 268 5.0
e 89 88 1.0
e 91 249 3.0
e 91 89 5.0
e 92 303 12.0
e 92 91 4.0
e 93 94 7.0
e 94 230 27.0
e 94 212 83.0
e 94 309 41.0
e 94 123 13.0
e 96 250 2.0
e 96 92 5.0
e 99 209 2.0
e 99 96 3.0
e 100 163 75.0
e 103 192 2.0
e 103 99 1.0
e 104 215 29.0
e 105 151 64.0
e 106 229 4.0
e 106 103 9.0
e 107 117 1.0
e 107 106 9.0
e 108 231 13.0
e 109 260 1.0
e 109 107 1.0
e 110 112 1.0
e 110 109 1.0
e 113 114 2.0
e 113 110 2.0
e 116 119 24.0
e 119 254 34.0
e 119 167 31.0
e 119 185 43.0
e 120 212 21.0
e 121 146 82.0
e 121 122 8.0
e 121 301 92.0
e 121 270 67.0
e 124 275 1.0
e 124 113 1.0
e 125 133 2.0
e 125 124 1.0
e 126 128 3.0
e 126 125 5.0
e 129 171 12.0
e 129 126 4.0
e 131 227 1.0
e 131 129 1.0
e 132 134 5.0
e 132 131 2.0
e 136 298 49.0
e 142 230 7.0
e 143 144 3.0
e 143 132 1.0
e 145 193 3.0
e 145 143 2.0
e 147 148 2.0
e 147 145 1.0
e 149 178 6.0
e 149 147 9.0
e 150 298 97.0
e 151 165 33.0
e 151 152 23.0
e 151 163 50.0
e 151 153 45.0
e 154 155 1.0
e 154 149 2.0
e 157 158 66.0
e 157 179 45.0
e 157 159 31.0
e 157 222 10.0
e 157 160 49.0
e 159 289 85.0
e 159 161 71.0
e 159 271 100.0
e 159 163 60.0
e 161 163 48.0
e 161 164 52.0
e 161 168 4.0
e 163 246 99.0
e 172 200 3.0
e 172 154 1.0
e 173 174 46.0
e 173 234 58.0
e 173 272 92.0
e 173 175 34.0
e 176 179 52.0
e 179 180 57.0
e 179 181 7.0
e 182 196 17.0
e 183 184 4.0
e 183 172 2.0
e 187 189 1.0
e 187 183 2.0
e 190 191 23.0
e 191 194 39.0
e 191 195 70.0
e 191 196 5.0
e 196 199 80.0
e 196 201 81.0
e 196 203 64.0
e 199 277 12.0
e 199 239 61.0
e 199 204 31.0
e 199 205 53.0
e 204 273 25.0
e 207 210 97.0
e 207 221 14.0
e 207 263 33.0
e 207 212 20.0
e 212 213 64.0
e 212 284 25.0
e 214 273 22.0
e 215 216 9.0
e 215 217 60.0
e 215 218 87.0
e 216 308 6.0
e 218 222 17.0
e 218 223 57.0
e 218 224 67.0
e 218 262 55.0
e 224 226 41.0
e 224 228 96.0
e 224 231 27.0
e 228 232 60.0
e 228 236 52.0
e 228 237 23.0
e 228 239 32.0
e 240 278 1.0
e 240 187 1.0
e 241 242 1.0
e 241 240 9.0
e 243 248 1.0
e 243 241 2.0
e 244 302 4.0
e 244 243 2.0
e 245 251 2.0
e 245 244 4.0
e 255 256 68.0
e 255 257 58.0
e 255 259 52.0
e 255 264 45.0
e 255 261 46.0
e 255 245 13.0
e 279 295 6.0
e 279 255 26.0
e 282 285 2.0
e 282 279 2.0
e 286 287 87.0
e 286 288 100.0
e 286 289 37.0
e 286 291 26.0
e 289 292 77.0
e 289 293 18.0
e 292 294 10.0
e 292 296 47.0
e 292 298 62.0
e 292 300 56.0
e 296 298 87.0
e 296 304 32.0
e 296 311 32.0
e 298 310 74.0
e 304 305 91.0
e 304 306 15.0
e 304 307 85.0
e 304 312 17.0
e 305 313 86.0
e 305 314 79.0
e 305 316 94.0
e 305 317 25.0
e 313 316 78.0
e 313 319 3.0
